50 1 3
831 208 36 519 585 802 879 978 166 835 750 724 485 667 102 810 597 161 754 189 390 665 76 884 815 169 829 175 450 441 876 281 649 912 799 233 714 677 211 879 512 960 602 996 627 704 806 224 864 559 
412 254 224 488 137 38 656 965 213 105 406 89 385 54 1000 184 286 713 860 497 592 371 457 193 367 84 897 172 307 760 731 719 13 954 206 150 992 861 115 205 966 520 293 351 573 293 534 859 6 393 
355 597 764 811 790 131 894 686 302 201 446 33 920 458 986 125 608 978 986 722 183 952 241 475 302 813 768 835 671 773 228 26 370 992 837 159 122 731 845 424 931 290 456 851 748 442 976 355 420 962 
770 6020 9130 3170 760 2140 1300 8440 490 8010 6160 2760 8260 9860 2670 6620 1440 3880 3920 9890 8120 3230 2780 2670 1730 260 7090 1490 3800 1280 1100 4560 7290 220 7730 8050 2360 9020 6480 2840 7020 2640 5590 5280 2490 8250 1900 3930 2130 5820 
111420
